QBPP_HJ*_25_025_06_2
25 267 2
1 35 31 48 43 39 12 32 41 46 42 40 27 17 14 48 42 4 47 49 29 34 31 11 36
    0    0    0    0    0    0    0    0    0    0    0    0   41    0  -44    0    0   47    0    0    0    0    0    0    0
    0    0    0    0    0    0    0    0   11    0    0    0    0    0    0   12    0  -42    0    9    0    0    4    0  -50
    0    0    0    0    0  -41    0    0  -12    0    0    0    0    0    0   -2    0    6    0    0    0    0    0    0   19
    0    0    0    0    0    0    0    0    0  -44    0    0    0    0  -30  -45    0   40    0    0    0    0    0    0    0
    0    0    0    0    0   32    0    0    0    0   11  -48    0    0   42   44    0    0  -23    0    0    0    0    0    0
    0    0  -41    0   32    0    0    0    0    0    0    0  -42    0    0    0    0    0    0    0   36    0    0  -44    0
    0    0    0    0    0    0    0    0    0    0  -35    0    0    0    0    0    0    0    0    0    0    0    0    0    0
    0    0    0    0    0    0    0    0    0    0    0    0    0    0    0    0    9   29    0    0    0   -4    0    0    0
    0   11  -12    0    0    0    0    0    0    0    0  -44  -22    0    0   20  -38    0   -1    0    0    0   11    0    0
    0    0    0  -44    0    0    0    0    0    0    0    0    0    0    0    0    0    0    0    0    0    0  -47    0   33
    0    0    0    0   11    0  -35    0    0    0    0    0    0    0    0    0    0    0    0    0    7    0    0    0    0
    0    0    0    0  -48    0    0    0  -44    0    0    0    0    0    0    0   23    0    0    0    0  -49  -37    0    0
   41    0    0    0    0  -42    0    0  -22    0    0    0    0    0    0    0   41  -12    0    0    0    0    0   34    0
    0    0    0    0    0    0    0    0    0    0    0    0    0    0    0  -27    0   -3   11    0   16    0    0    0    0
  -44    0    0  -30   42    0    0    0    0    0    0    0    0    0    0   39    0    0   39    0    0    0    5    0    0
    0   12   -2  -45   44    0    0    0   20    0    0    0    0  -27   39    0    0    0    0    0    0    0    0    0    0
    0    0    0    0    0    0    0    9  -38    0    0   23   41    0    0    0    0    8    0    0    0    0    0    0    0
   47  -42    6   40    0    0    0   29    0    0    0    0  -12   -3    0    0    8    0    9   27    0    0    0    0    0
    0    0    0    0  -23    0    0    0   -1    0    0    0    0   11   39    0    0    9    0  -23    0    0    0    0    0
    0    9    0    0    0    0    0    0    0    0    0    0    0    0    0    0    0   27  -23    0  -49    0    0    0    0
    0    0    0    0    0   36    0    0    0    0    7    0    0   16    0    0    0    0    0  -49    0    0    0    0    0
    0    0    0    0    0    0    0   -4    0    0    0  -49    0    0    0    0    0    0    0    0    0    0    0    0    0
    0    4    0    0    0    0    0    0   11  -47    0  -37    0    0    5    0    0    0    0    0    0    0    0   22    0
    0    0    0    0    0  -44    0    0    0    0    0    0   34    0    0    0    0    0    0    0    0    0   22    0    0
    0  -50   19    0    0    0    0    0    0   33    0    0    0    0    0    0    0    0    0    0    0    0    0    0    0
